\ This file has been generated by DOcplex
\ ENCODING=ISO-8859-1
\Problem name: Diet_Problem

Minimize
 obj: 3 Pounds_of_Steak_used + Pounds_of_Peanut_Butter_used
Subject To
 c1: 4 Pounds_of_Steak_used + Pounds_of_Peanut_Butter_used = 5

Bounds

Generals
 Pounds_of_Steak_used Pounds_of_Peanut_Butter_used
End
